Set parameter TokenServer to value "opt-license.discovery.wisc.edu"
Set parameter TimeLimit to value 600
Gurobi Optimizer version 9.5.1 build v9.5.1rc2 (linux64)
Thread count: 40 physical cores, 80 logical processors, using up to 32 threads
Optimize a model with 124921 rows, 216000 columns and 685428 nonzeros
Model fingerprint: 0x384bd679
Variable types: 214400 continuous, 1600 integer (1600 binary)
Coefficient statistics:
  Matrix range     [1e+00, 9e+02]
  Objective range  [1e+00, 8e+00]
  Bounds range     [1e+00, 1e+00]
  RHS range        [1e+00, 6e+00]
Presolve removed 7528 rows and 22442 columns
Presolve time: 4.55s
Presolved: 117393 rows, 193558 columns, 645876 nonzeros
Variable types: 191958 continuous, 1600 integer (1600 binary)

Deterministic concurrent LP optimizer: primal and dual simplex
Showing first log only...


Root simplex log...

Iteration    Objective       Primal Inf.    Dual Inf.      Time
       0    8.7077847e+01   1.665938e+02   8.625596e+08      8s
Concurrent spin time: 0.00s

Solved with dual simplex

Root relaxation: objective 3.964808e+01, 906 iterations, 1.34 seconds (0.51 work units)

    Nodes    |    Current Node    |     Objective Bounds      |     Work
 Expl Unexpl |  Obj  Depth IntInf | Incumbent    BestBd   Gap | It/Node Time

     0     0   39.64808    0   45          -   39.64808      -     -   10s
     0     0   39.97584    0   95          -   39.97584      -     -   19s
     0     0   40.14573    0  114          -   40.14573      -     -   22s
     0     0   40.17637    0  111          -   40.17637      -     -   24s
     0     0   40.29298    0   95          -   40.29298      -     -   26s
     0     0   40.34628    0  103          -   40.34628      -     -   27s
     0     0   40.38071    0   65          -   40.38071      -     -   28s
     0     0   40.38324    0  115          -   40.38324      -     -   29s
     0     0   40.45278    0  163          -   40.45278      -     -   32s
     0     0   40.45278    0  163          -   40.45278      -     -   32s
     0     0   40.49608    0  104          -   40.49608      -     -   34s
H    0     0                      41.6208443   40.49608  2.70%     -   35s
     0     0   40.50933    0  114   41.62084   40.50933  2.67%     -   37s
     0     0   40.50933    0   42   41.62084   40.50933  2.67%     -   41s
H    0     0                      41.4426987   40.50933  2.25%     -   41s
H    0     0                      41.2066307   40.50933  1.69%     -   42s
     0     0   40.50933    0   54   41.20663   40.50933  1.69%     -   42s
     0     0   40.50933    0   41   41.20663   40.50933  1.69%     -   43s
     0     0   40.50933    0   54   41.20663   40.50933  1.69%     -   43s
     0     0   40.50933    0   51   41.20663   40.50933  1.69%     -   43s
     0     0   40.50933    0   82   41.20663   40.50933  1.69%     -   43s
     0     0   40.50933    0   28   41.20663   40.50933  1.69%     -   43s
     0     0   40.50933    0   40   41.20663   40.50933  1.69%     -   43s
     0     0   40.50933    0   55   41.20663   40.50933  1.69%     -   43s
     0     0   40.50933    0  143   41.20663   40.50933  1.69%     -   43s
     0     0   40.50933    0   34   41.20663   40.50933  1.69%     -   44s
     0     0   40.50933    0   26   41.20663   40.50933  1.69%     -   44s
     0     0   40.50933    0   66   41.20663   40.50933  1.69%     -   44s
     0     0   40.51524    0  111   41.20663   40.51524  1.68%     -   44s
     0     0   40.52122    0  110   41.20663   40.52122  1.66%     -   44s
     0     0   40.56005    0   68   41.20663   40.56005  1.57%     -   44s
     0     0   40.60394    0   71   41.20663   40.60394  1.46%     -   44s
     0     0   40.61833    0   71   41.20663   40.61833  1.43%     -   44s
     0     0   40.67556    0   72   41.20663   40.67556  1.29%     -   44s
     0     0   40.67692    0   71   41.20663   40.67692  1.29%     -   44s
     0     0   40.67700    0   71   41.20663   40.67700  1.29%     -   44s
     0     0   40.71841    0   61   41.20663   40.71841  1.18%     -   44s
     0     0   40.73682    0   98   41.20663   40.73682  1.14%     -   44s
     0     0   40.74499    0   60   41.20663   40.74499  1.12%     -   45s
     0     0   40.74548    0   62   41.20663   40.74548  1.12%     -   45s

Explored 1 nodes (5535 simplex iterations) in 45.40 seconds (13.86 work units)
Thread count was 32 (of 80 available processors)

Solution count 3: 41.2066 41.4427 41.6208 

Optimal solution found (tolerance 1.00e-04)
Best objective 4.120663072598e+01, best bound 4.120663072598e+01, gap 0.0000%
